NAME : ClusterId_252 
COMMENT : (Gillet and Johnson) 
TYPE : CVRP 
DIMENSION : 6 
EDGE_WEIGHT_TYPE : EUC_2D 
CAPACITY : 500 
NODE_COORD_SECTION 
252 -50 60 
102 -42 63 
194 -39 61 
115 -53 62 
149 -58 64 
27 -61 66 
DEMAND_SECTION 
252 200
102 33
194 13
115 78
149 6
27 29
DEPOT_SECTION 
252
 -1
EOF